NAME : brazil58
TYPE : OP
DIMENSION : 58
COST_LIMIT : 12698
ROUTE_NODES : 42
ROUTE_SCORE : 1702
ROUTE_COST : 12559
NODE_SEQUENCE_SECTION
1
18
44
23
5
8
22
55
54
2
41
48
39
11
21
36
17
26
19
6
28
14
37
15
34
46
56
45
33
29
3
35
10
52
51
47
49
43
27
12
57
24
-1
DEPOT_SECTION
1
-1
EOF
